REM Solution 1  R1  0.371  Rweak  0.375,  Alpha = 0.1476  in P-4
REM Flack x =  0.483 ( 0.003 ) from Parsons' quotients
REM Formula:  C139 N43 O43 F63 Al10 Ga2
TITL P-4 in P-4
CELL  0.71073  29.0991  29.0991  20.0858   90.000   90.000   90.000
ZERR    8.00   0.00090   0.00090   0.00080   0.0000   0.0000   0.0000
LATT -1
SYMM -X, -Y, Z
SYMM Y, -X, -Z
SYMM -Y, X, -Z
SFAC C N O F Al Ga
 
UNIT 448 40 64 546 16 8
TEMP -173.140
L.S. 2
BOND
TWIN 1 0 0  0 -1 0 0 0 -1
LIST 4
ACTA
FMAP 2
PLAN 100
SIMU
RIGU
WGHT    0.100000
BASF   0.49852
FVAR       0.12029
GA1   6    0.258627    0.018911    0.262237    11.00000    0.01283    0.04938 =
         0.03202    0.01740   -0.01464    0.00967
GA2   6    0.245904    0.518961    0.240401    11.00000    0.01956    0.08276 =
         0.01542    0.01484    0.00924   -0.00377
AL1   5    0.223256    0.270088    0.529728    11.00000    0.05928    0.04096 =
         0.00775    0.01130    0.01921    0.00257
AL2   5    0.230692    0.273506    0.029773    11.00000    0.04478    0.04128 =
         0.04127    0.02807    0.02704    0.02735
AL3   5    0.500000    0.000000    0.067473    10.50000    0.01404   -0.00649 =
         0.00367    0.00000    0.00000    0.02739
AL4   5    0.000000    0.500000    0.436083    10.50000    0.01388    0.03619 =
         0.02587    0.00000    0.00000    0.02247
AL5   5    0.000000    0.000000    0.000000    10.25000    0.06429    0.06429 =
         0.05509    0.00000    0.00000    0.00000
AL6   5    0.500000    0.500000    0.000000    10.25000    0.02071    0.02071 =
        -0.01485    0.00000    0.00000    0.00000
AL7   5    0.000000    0.000000    0.500000    10.25000    0.07637    0.07637 =
         0.17425    0.00000    0.00000    0.00000
AL8   5    0.500000    0.500000    0.500000    10.25000    0.03147    0.03147 =
         0.04649    0.00000    0.00000    0.00000
SADI Al1_0 O1_11 Al1_0 O1_12 Al1_0 O1_13 Al1_0 O1_14 Al2_0 O1_15 Al2_0 O1_16 =
 AL2_0 O1_17 AL2_0 O1_18 AL3_0 O1_19 AL3_0 O1_20 AL4_0 O1_21 AL4_0 O1_22 =
 AL5_0 O1_23 AL6_0 O1_24 AL7_0 O1_25 AL8_0 O1_26
SADI Al1_0 C1_11 Al1_0 C1_12 Al1_0 C1_13 Al1_0 C1_14 Al2_0 C1_15 Al2_0 C1_16 =
 AL2_0 C1_17 AL2_0 C1_18 AL3_0 C1_19 AL3_0 C1_20 AL4_0 C1_21 AL4_0 C1_22 =
 AL5_0 C1_23 AL6_0 C1_24 AL7_0 C1_25 AL8_0 C1_26
 
FLAT_PYR N1 > C5
SAME_PYR N1 > C5
RESI 1 PYR
N1    2    0.252471    0.013135    0.365193    11.00000    0.05097    0.02016 =
         0.03995    0.00781   -0.00360    0.02654
C1    1    0.224812    0.036677    0.404934    11.00000    0.03320
C2    1    0.232603    0.042977    0.475035    11.00000    0.04820
C3    1    0.269292    0.018561    0.505727    11.00000    0.05451
C4    1    0.302857    0.001818    0.460342    11.00000    0.05694
C5    1    0.289683   -0.008057    0.396653    11.00000    0.04288
 
RESI 0
RESI 2 PYR
N1    2    0.309914    0.070502    0.260724    11.00000    0.01108    0.03510 =
         0.05171    0.00635   -0.00068    0.02057
C1    1    0.311037    0.103493    0.306542    11.00000    0.07372
C2    1    0.346644    0.136334    0.312685    11.00000    0.04583
C3    1    0.385531    0.132390    0.268805    11.00000    0.04148
C4    1    0.383825    0.098575    0.218335    11.00000    0.07305
C5    1    0.345449    0.071801    0.213724    11.00000    0.06357
RESI 0
RESI 3 PYR
N1    2    0.256308    0.017202    0.150639    11.00000    0.01864    0.03291 =
         0.03198    0.01700   -0.00161    0.02134
C1    1    0.278351   -0.017675    0.124185    11.00000    0.00428
C2    1    0.276677   -0.027554    0.054646    11.00000    0.02827
C3    1    0.249645    0.002002    0.013327    11.00000    0.03017
C4    1    0.228248    0.041183    0.041471    11.00000    0.00947
C5    1    0.227445    0.043456    0.109606    11.00000    0.05308
RESI 0
RESI 4 PYR
N1    2    0.207324   -0.041454    0.247029    11.00000    0.00806    0.03602 =
         0.03815    0.01872   -0.00661    0.01177
C1    1    0.213432   -0.078518    0.285633    11.00000    0.02572
C2    1    0.184250   -0.117845    0.285170    11.00000    0.04812
C3    1    0.145113   -0.116891    0.242289    11.00000    0.04539
C4    1    0.142009   -0.079522    0.197980    11.00000    0.00210
C5    1    0.169312   -0.041557    0.204605    11.00000    0.00774
RESI 0
RESI 5 PYR
N1    2    0.212803    0.071689    0.262085    11.00000    0.00342    0.02836 =
         0.06018    0.01914    0.00101   -0.00983
C1    1    0.173584    0.056829    0.288264    11.00000    0.05651
C2    1    0.132480    0.083949    0.288192    11.00000    0.04390
C3    1    0.134525    0.127307    0.255111    11.00000    0.03717
C4    1    0.177966    0.143324    0.232054    11.00000    0.06144
C5    1    0.215035    0.114850    0.231964    11.00000    0.04096
RESI 0
RESI 6 PYR
N1    2    0.193584    0.573509    0.229422    11.00000    0.00752    0.05219 =
         0.02418    0.00841    0.00131   -0.00425
C1    1    0.189439    0.607820    0.186530    11.00000    0.08425
C2    1    0.150250    0.636945    0.178499    11.00000    0.07278
C3    1    0.113186    0.628313    0.224174    11.00000    0.01679
C4    1    0.116910    0.590352    0.268801    11.00000    0.00762
C5    1    0.155408    0.563603    0.270069    11.00000    0.02530
RESI 0
RESI 7 PYR
N1    2    0.248427    0.524813    0.350748    11.00000    0.00541    0.05411 =
         0.02773    0.02125    0.01357    0.00961
C1    1    0.227954    0.485889    0.367517    11.00000    0.08607
C2    1    0.218981    0.470572    0.434082    11.00000    0.06326
C3    1    0.235626    0.501523    0.484568    11.00000    0.07239
C4    1    0.254964    0.544076    0.466038    11.00000    0.01698
C5    1    0.266373    0.552597    0.400687    11.00000    0.03565
RESI 0
RESI 8 PYR
N1    2    0.301009    0.474042    0.245416    11.00000    0.00315    0.02237 =
        -0.00098    0.00072   -0.00030   -0.00985
C1    1    0.292474    0.436486    0.210116    11.00000    0.01829
C2    1    0.319433    0.395310    0.218067    11.00000    0.00963
C3    1    0.357270    0.395193    0.263459    11.00000    0.00276
C4    1    0.363319    0.436560    0.300600    11.00000    0.00749
C5    1    0.336216    0.473752    0.291256    11.00000    0.02105
RESI 0
RESI 9 PYR
N1    2    0.239243    0.525317    0.126819    11.00000    0.00602    0.01913 =
         0.02192    0.01584    0.00271   -0.00598
C1    1    0.263617    0.544327    0.078524    11.00000    0.03235
C2    1    0.256887    0.539220    0.008781    11.00000    0.13681
C3    1    0.217974    0.512388   -0.010210    11.00000    0.07844
C4    1    0.194009    0.489243    0.041595    11.00000    0.03366
C5    1    0.202457    0.497297    0.106796    11.00000    0.06004
RESI 0
RESI 10 PYR
N1    2    0.302553    0.563562    0.239284    11.00000    0.01415    0.01463 =
         0.01575    0.00555    0.01352    0.01213
C1    1    0.344952    0.556918    0.216891    11.00000    0.00532
C2    1    0.379611    0.592209    0.218217    11.00000    0.04023
C3    1    0.369463    0.636325    0.246008    11.00000    0.12232
C4    1    0.323818    0.642699    0.269626    11.00000    0.05449
C5    1    0.294194    0.607123    0.266413    11.00000    0.02096
RESI 0
SADI_CCF3 C1 C2 C1 C3 C1 C4
SADI_CCF3 C2 C3 C3 C4 C2 C4
SADI_CCF3 O1 C2 O1 C3 O1 C4
SADI_CCF3 F1 C2 F2 C2 F3 C2 F4 C3 F5 C3 F6 C3 F7 C4 F8 C4 F9 C4
SADI_CCF3 F1 F2 F2 F3 F3 F1 F4 F5 F5 F6 F6 F4 F7 F8 F8 F9 F9 F7
SIMU_CCF3 O1 > F9
RIGU_CCF3 O1 > F9
RESI 11 CCF3
O1    3    0.246674    0.234185    0.586783    11.00000    0.02596
C1    1    0.276230    0.197980    0.604655    11.00000    0.00467
C2    1    0.269131    0.189774    0.678293    11.00000    0.05121
F1    4    0.288425    0.224445    0.715316    11.00000    0.13190
F2    4    0.283183    0.150136    0.706184    11.00000    0.08855
F3    4    0.223418    0.192367    0.691539    11.00000    0.13329
C3    1    0.262410    0.157470    0.562315    11.00000    0.07433
F4    4    0.221950    0.140388    0.582781    11.00000    0.08844
F5    4    0.295203    0.126110    0.572598    11.00000    0.05297
F6    4    0.258141    0.164670    0.495095    11.00000    0.03147
C4    1    0.325041    0.212571    0.590486    11.00000    0.10803
F7    4    0.327041    0.255472    0.615518    11.00000    0.04494
F8    4    0.340285    0.215001    0.526982    11.00000    0.06898
F9    4    0.356251    0.187833    0.624670    11.00000    0.04375
RESI 0
 
RESI 12 CCF3
O1    3    0.189212    0.244611    0.471377    11.00000    0.03082
C1    1    0.140303    0.237158    0.455902    11.00000    0.03091
C2    1    0.119288    0.225826    0.521978    11.00000    0.10611
F1    4    0.112512    0.255742    0.574473    11.00000    0.14025
F2    4    0.147435    0.193029    0.546866    11.00000    0.12523
F3    4    0.078459    0.206973    0.510074    11.00000    0.03823
C3    1    0.140665    0.200084    0.405087    11.00000    0.08576
F4    4    0.162339    0.223247    0.355152    11.00000    0.13700
F5    4    0.100724    0.184929    0.381001    11.00000    0.11189
F6    4    0.166634    0.164225    0.421881    11.00000    0.10798
C4    1    0.123179    0.281862    0.427477    11.00000    0.06836
F7    4    0.079142    0.269894    0.413454    11.00000    0.13262
F8    4    0.141746    0.293992    0.368334    11.00000    0.06918
F9    4    0.121909    0.319184    0.466207    11.00000    0.10254
RESI 0
 
RESI 13 CCF3
O1    3    0.199811    0.314397    0.571646    11.00000    0.04617
C1    1    0.197900    0.342499    0.627723    11.00000    0.00671
C2    1    0.156286    0.374197    0.617942    11.00000    0.05915
F1    4    0.146671    0.389872    0.554806    11.00000    0.20195
F2    4    0.156316    0.412342    0.656868    11.00000    0.07503
F3    4    0.116930    0.350833    0.634542    11.00000    0.09691
C3    1    0.191343    0.313040    0.688561    11.00000    0.02856
F4    4    0.159538    0.279099    0.685556    11.00000    0.07686
F5    4    0.175886    0.343820    0.734076    11.00000    0.27664
F6    4    0.229210    0.293822    0.715221    11.00000    0.04113
C4    1    0.241640    0.370221    0.630637    11.00000    0.06788
F7    4    0.236307    0.403989    0.583984    11.00000    0.05932
F8    4    0.280480    0.347640    0.616462    11.00000    0.04234
F9    4    0.247804    0.391979    0.689403    11.00000    0.03756
RESI 0
RESI 14 CCF3
O1    3    0.269284    0.289193    0.486344    11.00000    0.01452
C1    1    0.287797    0.310475    0.428544    11.00000    0.00546
C2    1    0.339055    0.317592    0.443947    11.00000    0.03125
F1    4    0.357501    0.351644    0.406315    11.00000    0.00788
F2    4    0.364172    0.279307    0.431956    11.00000    0.03667
F3    4    0.352682    0.329355    0.507147    11.00000    0.00331
C3    1    0.265916    0.356861    0.420440    11.00000    0.04792
F4    4    0.283283    0.389040    0.464230    11.00000    0.05354
F5    4    0.220426    0.356121    0.431376    11.00000    0.03117
F6    4    0.273325    0.376358    0.359582    11.00000    0.06330
C4    1    0.281873    0.279047    0.371054    11.00000    0.04318
F7    4    0.293001    0.235147    0.387001    11.00000    0.14625
F8    4    0.309748    0.292123    0.321109    11.00000    0.04215
F9    4    0.238492    0.280031    0.350533    11.00000    0.04335
RESI 0
RESI 15 CCF3
O1    3    0.210804    0.224139   -0.006183    11.00000    0.05759
C1    1    0.187647    0.205974   -0.063977    11.00000    0.08970
C3    1    0.224725    0.182404   -0.104777    11.00000    0.07538
F4    4    0.238691    0.143871   -0.074472    11.00000    0.09997
F5    4    0.261196    0.209372   -0.116074    11.00000    0.03594
F6    4    0.208012    0.169835   -0.165180    11.00000    0.06307
C4    1    0.169708    0.246825   -0.102713    11.00000    0.08070
F7    4    0.152206    0.280332   -0.065472    11.00000    0.04135
F8    4    0.134067    0.229036   -0.139585    11.00000    0.06829
F9    4    0.199332    0.266808   -0.146329    11.00000    0.02975
RESI 0
RESI 16 CCF3
O1    3    0.252323    0.313667   -0.023441    11.00000    0.01863
C1    1    0.267635    0.355439   -0.044078    11.00000    0.11543
C2    1    0.228479    0.381040   -0.079102    11.00000    0.01701
F1    4    0.221718    0.366394   -0.143304    11.00000    0.08461
F2    4    0.235705    0.427470   -0.086590    11.00000    0.02140
F3    4    0.186177    0.376538   -0.050110    11.00000    0.06482
C3    1    0.284725    0.383063    0.014861    11.00000    0.01735
F4    4    0.306182    0.423387    0.005151    11.00000    0.08120
F5    4    0.315423    0.357824    0.052665    11.00000    0.06317
F6    4    0.248040    0.390765    0.054432    11.00000    0.04845
C4    1    0.307106    0.349395   -0.093459    11.00000    0.12026
F7    4    0.310995    0.392149   -0.120580    11.00000    0.08556
F8    4    0.298889    0.321383   -0.145151    11.00000    0.05941
F9    4    0.349205    0.337968   -0.070284    11.00000    0.07943
RESI 0
RESI 17 CCF3
O1    3    0.193271    0.305986    0.077215    11.00000    0.02615
C1    1    0.161583    0.309653    0.129002    11.00000    0.01383
C2    1    0.130272    0.350717    0.114559    11.00000    0.04390
F1    4    0.111498    0.348378    0.052402    11.00000    0.03102
F2    4    0.150404    0.391689    0.120357    11.00000    0.09428
F3    4    0.093347    0.350233    0.156220    11.00000    0.11144
C3    1    0.130607    0.266596    0.126243    11.00000    0.03141
F4    4    0.092858    0.257999    0.087819    11.00000    0.09986
F5    4    0.113854    0.265699    0.189899    11.00000    0.08427
F6    4    0.158278    0.229426    0.121282    11.00000    0.05490
F7    4    0.161870    0.332316    0.240301    11.00000    0.02744
F8    4    0.221505    0.336737    0.179782    11.00000    0.06395
F9    4    0.194997    0.269490    0.210274    11.00000    0.10807
RESI 0
RESI 18 CCF3
O1    3    0.272452    0.257016    0.085703    11.00000    0.07673
C1    1    0.308716    0.225518    0.098417    11.00000    0.05694
C2    1    0.322313    0.233069    0.170492    11.00000    0.04056
F1    4    0.323977    0.276909    0.190786    11.00000    0.04939
F2    4    0.364468    0.215371    0.178548    11.00000    0.06546
F3    4    0.293218    0.210385    0.211008    11.00000    0.07836
C3    1    0.289106    0.177593    0.089069    11.00000    0.03139
F4    4    0.245199    0.163188    0.103664    11.00000    0.04933
F5    4    0.316760    0.151486    0.128653    11.00000    0.16627
F6    4    0.296258    0.165201    0.025781    11.00000    0.02894
C4    1    0.348033    0.235551    0.052489    11.00000    0.08119
F7    4    0.379466    0.202121    0.034698    11.00000    0.05852
F8    4    0.374154    0.267440    0.085765    11.00000    0.07685
F9    4    0.335827    0.256126   -0.004928    11.00000    0.24582
RESI 0
RESI 19 CCF3
O1    3    0.515069    0.046753    0.115280    11.00000   -0.00100
C1    1    0.548829    0.070655    0.149944    11.00000    0.02863
C2    1    0.530382    0.118015    0.164591    11.00000    0.09405
F1    4    0.528566    0.147811    0.113830    11.00000    0.05429
F2    4    0.557276    0.134380    0.212893    11.00000    0.02942
F3    4    0.488803    0.113669    0.191037    11.00000    0.05170
C3    1    0.559983    0.044704    0.213395    11.00000    0.14146
F4    4    0.528258    0.050719    0.261667    11.00000    0.03377
F5    4    0.600366    0.060088    0.240201    11.00000    0.05254
F6    4    0.565089   -0.001466    0.206764    11.00000    0.09075
C4    1    0.591147    0.073673    0.106476    11.00000   -0.00100
F7    4    0.624482    0.097856    0.134955    11.00000    0.06984
F8    4    0.584168    0.087841    0.043948    11.00000    0.04347
F9    4    0.605762    0.028991    0.101456    11.00000    0.05152
RESI 0
RESI 20 CCF3
O1    3    0.542895   -0.017984    0.016866    11.00000    0.06471
C1    1    0.565960   -0.045449   -0.025498    11.00000    0.01945
C2    1    0.591609   -0.082033    0.014972    11.00000    0.04949
F1    4    0.563599   -0.117160    0.035013    11.00000    0.07532
F2    4    0.609984   -0.065174    0.071852    11.00000    0.05594
F3    4    0.625419   -0.102539   -0.019088    11.00000    0.02944
C3    1    0.533117   -0.070486   -0.071868    11.00000    0.03321
F4    4    0.495321   -0.079271   -0.037108    11.00000    0.11433
F5    4    0.547461   -0.108654   -0.104206    11.00000    0.00862
F6    4    0.522397   -0.039648   -0.119391    11.00000    0.06454
C4    1    0.599156   -0.017044   -0.066602    11.00000    0.05674
F7    4    0.576429    0.021219   -0.089188    11.00000    0.03984
F8    4    0.611930   -0.039224   -0.123854    11.00000    0.04105
F9    4    0.638937   -0.000728   -0.039464    11.00000    0.06734
RESI 0
RESI 21 CCF3
O1    3    0.017533    0.455180    0.388917    11.00000    0.04314
C1    1    0.050056    0.432762    0.348860    11.00000    0.02142
C2    1    0.095346    0.431505    0.385942    11.00000    0.02565
F1    4    0.086378    0.424940    0.452040    11.00000    0.03885
F2    4    0.120163    0.469862    0.382821    11.00000    0.01430
F3    4    0.121929    0.394974    0.368935    11.00000    0.04377
C3    1    0.055429    0.458353    0.283928    11.00000    0.02554
F4    4    0.060084    0.503967    0.297685    11.00000    0.00695
F5    4    0.019868    0.455925    0.240846    11.00000    0.09537
F6    4    0.093501    0.447371    0.248395    11.00000    0.06776
C4    1    0.031930    0.384440    0.336942    11.00000   -0.00100
F7    4    0.053586    0.359383    0.289531    11.00000    0.04615
F8    4   -0.013710    0.380813    0.322185    11.00000    0.02723
F9    4    0.037112    0.361490    0.395014    11.00000    0.04704
RESI 0
RESI 22 CCF3
O1    3    0.046188    0.515214    0.480176    11.00000    0.00067
C1    1    0.070085    0.544479    0.524261    11.00000   -0.00100
C2    1    0.033361    0.567581    0.566354    11.00000    0.02479
F1    4   -0.003551    0.584282    0.534914    11.00000    0.00112
F2    4    0.056182    0.603719    0.592316    11.00000    0.08711
F3    4    0.018020    0.542390    0.618140    11.00000    0.01346
C3    1    0.100972    0.515703    0.567364    11.00000    0.00486
F4    4    0.085013    0.475805    0.592971    11.00000    0.05003
F5    4    0.118960    0.540439    0.618735    11.00000    0.05798
F6    4    0.138060    0.504779    0.529427    11.00000    0.05549
C4    1    0.096466    0.578773    0.483659    11.00000    0.00673
F7    4    0.127023    0.605586    0.517542    11.00000    0.09742
F8    4    0.066947    0.608404    0.453559    11.00000    0.04197
F9    4    0.119988    0.557990    0.435209    11.00000    0.03517
RESI 0
REM #####
REM #####
RESI 23 CCF3
O1    3    0.015068    0.049360    0.040257    11.00000    0.04735
C1    1    0.045401    0.065310    0.094169    11.00000    0.13419
C2    1    0.025917    0.043633    0.155500    11.00000    0.06829
F1    4   -0.016540    0.025559    0.168410    10.50000    0.06558
F2    4    0.034821    0.073981    0.203858    11.00000    0.18810
F3    4    0.056124    0.008627    0.160442    11.00000    0.17639
C3    1    0.092187    0.048100    0.075123    11.00000    0.23724
F4    4    0.103659    0.062455    0.011988    11.00000    0.12856
F5    4    0.099567    0.001585    0.074092    11.00000    0.08423
F6    4    0.125709    0.065616    0.114831    11.00000    0.38876
C4    1    0.041270    0.116532    0.092939    11.00000    0.19692
F7    4    0.028187    0.141719    0.146119    11.00000    0.55736
F8    4    0.022243    0.137256    0.038558    11.00000    0.23369
F9    4    0.086916    0.120639    0.087061    11.00000    0.17403
 
RESI 0
RESI 24 CCF3
RESI 0
RESI 24 CCF3
O1    3    0.474683    0.462832    0.054701    11.00000    0.03801
C1    1    0.448727    0.441794    0.097856    11.00000    0.07300
C2    1    0.405072    0.469230    0.110953    11.00000    0.07669
F3    4    0.376648    0.436704    0.087461    11.00000    0.09649
F1    4    0.399392    0.507798    0.076512    11.00000    0.23398
F2    4    0.393366    0.475796    0.175350    11.00000    0.09847
C3    1    0.438732    0.392643    0.085050    11.00000    0.11401
F4    4    0.422011    0.369713    0.138491    11.00000    0.02877
F5    4    0.480688    0.374185    0.071227    11.00000    0.17142
F6    4    0.411363    0.381280    0.033541    11.00000    0.05214
RESI 0
 
C4    1    0.473688    0.455435    0.176274    11.00000    0.06481
F7    4    0.447611    0.497116    0.155641    11.00000    0.15779
F8    4    0.512058    0.483736    0.179413    11.00000    0.11149
F9    4    0.450160    0.431226    0.213523    11.00000    0.06150
RESI 0
REM #####
RESI 25 CCF3
O1    3    0.045220    0.022850    0.543596    11.00000    0.02109
C1    1    0.074889    0.062129    0.547637    11.00000    0.14993
C2    1    0.092636    0.064145    0.617625    11.00000    0.12398
 
F1    4    0.061139    0.063795    0.666709    11.00000    0.09494
F2    4    0.117697    0.102760    0.623978    11.00000    0.11164
F3    4    0.121281    0.028305    0.629395    11.00000    0.25987
C3    1    0.046368    0.103588    0.529595    11.00000    0.19995
F4    4    0.069043    0.144610    0.537470    11.00000    0.14313
F5    4    0.011215    0.104998    0.573913    11.00000    0.22409
F6    4    0.025908    0.107340    0.468183    11.00000    0.26094
C4    1    0.113283    0.054472    0.498336    11.00000    0.27417
RESI 0
RESI 26 CCF3
O1    3    0.503781    0.457403    0.443513    11.00000    0.06136
C1    1    0.531441    0.420900    0.416775    11.00000    0.05717
C2    1    0.579550    0.439419    0.415050    11.00000    0.14551
 
F1    4    0.602765    0.464868    0.460172    11.00000    0.39938
F2    4    0.579220    0.464321    0.357539    11.00000    0.34563
F3    4    0.603948    0.401641    0.402633    11.00000    0.08679
C3    1    0.513741    0.410716    0.348151    11.00000    0.11188
F4    4    0.469100    0.402568    0.352948    11.00000    0.05711
F5    4    0.536753    0.371148    0.341910    11.00000    0.19067
F6    4    0.524642    0.439768    0.301251    11.00000    0.22177
C4    1    0.525046    0.380216    0.461272    11.00000    0.08245
F7    4    0.555062    0.347694    0.480756    11.00000    0.13436
F8    4    0.491730    0.357014    0.425913    11.00000    0.10409
RESI 0
HKLF 4
 
REM  P-4 in P-4
REM R1 =  0.1746 for   21186 Fo > 4sig(Fo)  and  0.1800 for all   22304 data
REM   1206 parameters refined using  21489 restraints
 
END  
     
WGHT      0.2000      0.0000 

REM Highest difference peak  2.442,  deepest hole -1.616,  1-sigma level  0.289
Q1    1   0.2380  0.4922  0.7642  11.00000  0.05    2.44
Q2    1   0.2634  0.0443 -0.1817  11.00000  0.05    2.22
Q3    1   0.2382  0.5418  0.6803  11.00000  0.05    2.11
Q4    1   0.0104  0.2604  0.2707  11.00000  0.05    1.97
Q5    1   0.2194  0.5583  0.6226  11.00000  0.05    1.93
Q6    1   0.2726  0.5061 -0.2061  11.00000  0.05    1.90
Q7    1   0.2782  0.0601 -0.1277  11.00000  0.05    1.89
Q8    1  -0.0027  0.2770  0.2072  11.00000  0.05    1.86
Q9    1   0.2316  0.0063  0.7096  11.00000  0.05    1.81
Q10   1   0.2178  0.5047  0.7002  11.00000  0.05    1.77
Q11   1   0.1074 -0.0112  0.6541  11.00000  0.05    1.57
Q12   1  -0.0476  0.2161  0.2081  11.00000  0.05    1.54
Q13   1   0.5440  0.4135  0.0929  11.00000  0.05    1.53
Q14   1   0.4963  0.3461  0.0713  11.00000  0.05    1.47
Q15   1   0.1523  0.1526 -0.0045  11.00000  0.05    1.44
Q16   1   0.4573  0.2971  0.2384  11.00000  0.05    1.43
Q17   1   0.4472  0.2803  0.3015  11.00000  0.05    1.43
Q18   1   0.2044  0.0400  0.7338  11.00000  0.05    1.42
Q19   1   0.1626  0.0034  0.5709  11.00000  0.05    1.39
Q20   1   0.1699  0.1602  0.0338  11.00000  0.05    1.37
Q21   1  -0.0327  0.2009  0.2281  11.00000  0.05    1.35
Q22   1   0.0724  0.1147  0.6194  11.00000  0.05    1.33
Q23   1   0.5148  0.3924  0.1465  11.00000  0.05    1.29
Q24   1   0.5683  0.3699  0.3862  11.00000  0.05    1.24
Q25   1   0.5120  0.3700  0.1727  11.00000  0.05    1.17
Q26   1   0.1009  0.0782  0.5862  11.00000  0.05    1.09
Q27   1   0.4219  0.5498  0.0485  11.00000  0.05    1.09
Q28   1   0.3818  0.5216  0.0484  11.00000  0.05    1.09
Q29   1  -0.0017  0.1311  0.4274  11.00000  0.05    1.08
Q30   1   0.4450  0.4221  0.4220  11.00000  0.05    1.08
Q31   1   0.6193  0.4433  0.3467  11.00000  0.05    1.08
Q32   1   0.0805  0.0636 -0.0725  11.00000  0.05    1.08
Q33   1   0.4466  0.3663  0.2123  11.00000  0.05    1.08
Q34   1   0.3290  0.3061 -0.1100  11.00000  0.05    1.07
Q35   1   0.0253  0.0903  0.4024  11.00000  0.05    1.07
Q36   1   0.1099  0.1922 -0.0218  11.00000  0.05    1.06
Q37   1   0.4276  0.3524  0.0033  11.00000  0.05    1.06
Q38   1   0.1734  0.1425 -0.1080  11.00000  0.05    1.06
Q39   1   0.1487  0.6849  0.1142  11.00000  0.05    1.05
Q40   1   0.5528  0.3445  0.3544  11.00000  0.05    1.04
Q41   1   0.0221  0.2985  0.1317  11.00000  0.05    1.03
Q42   1   0.0932  0.2015 -0.0622  11.00000  0.05    1.03
Q43   1   0.0668  0.1447  0.1353  11.00000  0.05    1.02
Q44   1   0.4221  0.4266 -0.0413  11.00000  0.05    1.00
Q45   1   0.1390  0.6773  0.1528  11.00000  0.05    1.00
Q46   1   0.3083  0.1697 -0.1159  11.00000  0.05    0.99
Q47   1   0.0481  0.0828  0.4073  11.00000  0.05    0.99
Q48   1   0.1030  0.2131 -0.1064  11.00000  0.05    0.98
Q49   1   0.1010  0.2119 -0.0766  11.00000  0.05    0.98
Q50   1   0.0807  0.0382  0.4433  11.00000  0.05    0.97
Q51   1   0.1365  0.1955 -0.0880  11.00000  0.05    0.97
Q52   1   0.1890 -0.0043  0.7247  11.00000  0.05    0.96
Q53   1   0.1405  0.0617  0.7109  11.00000  0.05    0.95
Q54   1   0.3626  0.3319  0.3977  11.00000  0.05    0.94
Q55   1   0.0724  0.2021  0.2471  11.00000  0.05    0.93
Q56   1   0.0419  0.4612  0.1861  11.00000  0.05    0.93
Q57   1   0.4247  0.5233  0.0988  11.00000  0.05    0.93
Q58   1  -0.0246  0.0785  0.6081  11.00000  0.05    0.93
Q59   1  -0.0216  0.2013  0.1170  11.00000  0.05    0.93
Q60   1   0.0282  0.0021  0.5598  11.00000  0.05    0.92
Q61   1   0.2697  0.5202  0.0182  11.00000  0.05    0.92
Q62   1   0.1087  0.2191 -0.1188  11.00000  0.05    0.92
Q63   1   0.4355  0.6331  0.1775  11.00000  0.05    0.92
Q64   1   0.3539  0.3598  0.4285  11.00000  0.05    0.92
Q65   1   0.2842  0.1451  0.1735  11.00000  0.05    0.92
Q66   1   0.3035  0.3872  0.4833  11.00000  0.05    0.91
Q67   1   0.2017  0.4828  0.6456  11.00000  0.05    0.91
Q68   1   0.2493  0.5612 -0.0401  11.00000  0.05    0.91
Q69   1   0.2311  0.2170 -0.0098  11.00000  0.05    0.91
Q70   1   0.4825  0.3651  0.0261  11.00000  0.05    0.90
Q71   1   0.2593  0.2177  0.4410  11.00000  0.05    0.90
Q72   1   0.3527  0.1498  0.3725  11.00000  0.05    0.90
Q73   1   0.1414 -0.1245  0.0978  11.00000  0.05    0.90
Q74   1   0.2576  0.5217  0.4904  11.00000  0.05    0.90
Q75   1   0.0172  0.0069  0.6913  11.00000  0.05    0.89
Q76   1   0.2737  0.0778  0.0879  11.00000  0.05    0.89
Q77   1   0.1887  0.4071  0.3186  11.00000  0.05    0.89
Q78   1   0.4817  0.4806  0.3316  11.00000  0.05    0.89
Q79   1   0.1625  0.1586  0.4807  11.00000  0.05    0.89
Q80   1   0.0407  0.3715  0.2728  11.00000  0.05    0.89
Q81   1   0.5050  0.3183  0.2306  11.00000  0.05    0.89
Q82   1   0.1399  0.5555  0.6638  11.00000  0.05    0.89
Q83   1   0.4281  0.5771  0.1557  11.00000  0.05    0.89
Q84   1   0.2420  0.4934  0.6209  11.00000  0.05    0.88
Q85   1   0.4523  0.2364  0.2721  11.00000  0.05    0.88
Q86   1   0.5455  0.3904  0.0390  11.00000  0.05    0.88
Q87   1   0.4664  0.2884  0.1342  11.00000  0.05    0.88
Q88   1   0.1402  0.3886  0.6714  11.00000  0.05    0.88
Q89   1   0.2298  0.0021  0.4777  11.00000  0.05    0.88
Q90   1   0.3836  0.4307  0.1205  11.00000  0.05    0.88
Q91   1   0.2282  0.1091  0.7234  11.00000  0.05    0.88
Q92   1  -0.0588  0.0606  0.1152  11.00000  0.05    0.88
Q93   1   0.2418  0.5450  0.5596  11.00000  0.05    0.88
Q94   1   0.0819  0.1858 -0.1138  11.00000  0.05    0.87
Q95   1   0.3213  0.1708  0.4467  11.00000  0.05    0.87
Q96   1   0.2607  0.6397  0.2675  11.00000  0.05    0.87
Q97   1   0.2244  0.5160  0.6334  11.00000  0.05    0.87
Q98   1   0.0402  0.2927  0.1519  11.00000  0.05    0.87
Q99   1   0.2817  0.0026  0.5781  11.00000  0.05    0.87
Q100  1   0.0603  0.1409  0.3297  11.00000  0.05    0.87
