TITL I-43d in I-43d
CELL 0.71073  25.4805  25.4805  25.4805  90.000  90.000  90.000
ZERR    4.00   0.0057   0.0057   0.0057   0.000   0.000   0.000
LATT -2
SYMM 0.5-X, -Y, 0.5+Z
SYMM -X, 0.5+Y, 0.5-Z
SYMM 0.5+X, 0.5-Y, -Z
SYMM Z, X, Y
SYMM 0.5+Z, 0.5-X, -Y
SYMM 0.5-Z, -X, 0.5+Y
SYMM -Z, 0.5+X, 0.5-Y
SYMM Y, Z, X
SYMM -Y, 0.5+Z, 0.5-X
SYMM 0.5+Y, 0.5-Z, -X
SYMM 0.5-Y, -Z, 0.5+X
SYMM 0.25+Y, 0.25+X, 0.25+Z
SYMM 0.25-Y, 0.75-X, 0.75+Z
SYMM 0.75+Y, 0.25-X, 0.75-Z
SYMM 0.75-Y, 0.75+X, 0.25-Z
SYMM 0.25+X, 0.25+Z, 0.25+Y
SYMM 0.75-X, 0.75+Z, 0.25-Y
SYMM 0.25-X, 0.75-Z, 0.75+Y
SYMM 0.75+X, 0.25-Z, 0.75-Y
SYMM 0.25+Z, 0.25+Y, 0.25+X
SYMM 0.75+Z, 0.25-Y, 0.75-X
SYMM 0.75-Z, 0.75+Y, 0.25-X
SYMM 0.25-Z, 0.75-Y, 0.75+X
SFAC C  H  N  P  Cl Ni
UNIT 644 876 60 48 28 16
LIST 4 ! automatically inserted. Change 6 to 4 for CHECKCIF!!
L.S. 12
BOND $H
ACTA
CONF
HTAB
OMIT  1   1   2
OMIT -1   1   2
FMAP 2
PLAN 20
SIZE 0.100 0.200 0.200
TEMP -173
WGHT    0.041500   14.711700
FVAR       0.03537   0.23365   0.20533   0.26513
NI1   6    0.496858    0.496858    0.496858    10.33333    0.03532    0.03532 =
         0.03532    0.00261    0.00261    0.00261
CL1   5    0.446318    0.446318    0.446318    10.33333    0.06864    0.06864 =
         0.06864   -0.01130   -0.01130   -0.01130
P1    4    0.572660    0.537487    0.408722    11.00000    0.04593    0.03692 =
         0.04818    0.01109    0.01429    0.00911
N1    3    0.559853    0.532798    0.469922    11.00000    0.04058    0.03647 =
         0.04795    0.00296    0.00713    0.00050
C7    1    0.495821    0.613629    0.401612    11.00000    0.03621    0.03880 =
         0.05179    0.00785    0.00921   -0.00039
AFIX  43
H7    2    0.492906    0.609592    0.438562    11.00000   -1.20000
AFIX   0
C10   1    0.503099    0.624321    0.293628    11.00000    0.04094    0.08465 =
         0.05204    0.01643    0.00296    0.00943
AFIX  43
H10   2    0.505090    0.627804    0.256561    11.00000   -1.20000
AFIX   0
C1    1    0.598366    0.598366    0.598366    10.33333    0.08289    0.08289 =
         0.08289   -0.02060   -0.02060   -0.02060
AFIX 137
H1A   2    0.585838    0.596770    0.634694    10.33333   -1.50000
H1B   2    0.596770    0.634694    0.585838    10.33333   -1.50000
H1C   2    0.634694    0.585838    0.596770    10.33333   -1.50000
AFIX   0
C6    1    0.531392    0.583026    0.373148    11.00000    0.03436    0.03233 =
         0.05071    0.00517    0.00478   -0.00144
C9    1    0.468521    0.654980    0.322032    11.00000    0.03847    0.07170 =
         0.06796    0.02519    0.00514    0.01312
AFIX  43
H9    2    0.447072    0.679831    0.304356    11.00000   -1.20000
AFIX   0
C8    1    0.464878    0.649871    0.375475    11.00000    0.03743    0.04790 =
         0.06727    0.01545    0.01276    0.00859
AFIX  43
H8    2    0.441072    0.671244    0.394620    11.00000   -1.20000
AFIX   0
C2    1    0.563349    0.563349    0.563349    10.33333    0.05251    0.05251 =
         0.05251   -0.00225   -0.00225   -0.00225
C3    1    0.580121    0.573131    0.506099    11.00000    0.05062    0.04434 =
         0.06303    0.00162    0.00115   -0.00885
AFIX  23
H3A   2    0.567166    0.607985    0.494831    11.00000   -1.20000
H3B   2    0.618921    0.573642    0.504125    11.00000   -1.20000
AFIX   0
 
C4    1    0.638260    0.558789    0.395950    11.00000    0.04360    0.08327 =
         0.06950    0.03614    0.01265    0.01855
AFIX 137
H4A   2    0.641826    0.595837    0.405646    11.00000   -1.50000
H4B   2    0.646070    0.554521    0.358533    11.00000   -1.50000
H4C   2    0.662854    0.537690    0.416668    11.00000   -1.50000
AFIX   0
C5    1    0.565359    0.475479    0.377906    11.00000    0.09975    0.03770 =
         0.04739    0.00595    0.02459    0.01900
AFIX 137
H5A   2    0.589183    0.450128    0.394307    11.00000   -1.50000
H5B   2    0.573796    0.478670    0.340518    11.00000   -1.50000
H5C   2    0.529065    0.463386    0.381872    11.00000   -1.50000
AFIX   0
C11   1    0.534923    0.588407    0.319473    11.00000    0.03948    0.04954 =
         0.04716    0.00502    0.00462   -0.00103
AFIX  43
H11   2    0.559086    0.567586    0.300167    11.00000   -1.20000
AFIX   0
CL2   5    0.500000    0.250000    0.625000    10.25000    0.03664    0.03664 =
         0.04574    0.00000    0.00000    0.00000
 
PART -1 10.25
SIMU 0.03 C20 > C26
DELU 0.005 C20 > C26
FLAT C20 > C26
SAME C21 > C25 C20
SAME C20 C25 < C21 C26
EADP C21 C25
EADP C20 C23
C20   1    0.336193    0.499698    0.249268    10.25000    0.09914    0.06738 =
         0.09202   -0.02349    0.03347    0.00983
C21   1    0.368765    0.501756    0.202705    10.25000    0.09223    0.04984 =
         0.09766   -0.01932    0.03776    0.01291
AFIX  43
H21   2    0.352683    0.507722    0.169602    10.25000   -1.20000
AFIX   0
C22   1    0.424515    0.495053    0.205162    10.25000    0.09516    0.06145 =
         0.10613   -0.01404    0.02600    0.03061
AFIX  43
H22   2    0.443811    0.494790    0.173261    10.25000   -1.20000
AFIX   0
C23   1    0.452712    0.488687    0.253801    10.25000    0.09914    0.06738 =
         0.09202   -0.02349    0.03347    0.00983
AFIX  43
H23   2    0.489976    0.488685    0.255000    10.25000   -1.20000
AFIX   0
C24   1    0.421648    0.482365    0.300223    10.25000    0.07950    0.13305 =
         0.10419   -0.02502    0.02411   -0.04325
AFIX  43
H24   2    0.437325    0.472960    0.332716    10.25000   -1.20000
AFIX   0
C25   1    0.366280    0.490659    0.296120    10.25000    0.09223    0.04984 =
         0.09766   -0.01932    0.03776    0.01291
AFIX  43
H25   2    0.347147    0.490130    0.328115    10.25000   -1.20000
AFIX   0
C26   1    0.288122    0.508567    0.250314    10.25000    0.08246    0.09777 =
         0.04553   -0.02348    0.04092   -0.00147
AFIX 137
H26A  2    0.280237    0.533146    0.278826    10.25000   -1.50000
H26B  2    0.269133    0.475636    0.256157    10.25000   -1.50000
H26C  2    0.277182    0.523898    0.216780    10.25000   -1.50000
AFIX   0
PART 0
 
PART -2 10.25
SIMU 0.03 C30 > C35
DELU 0.005 C30 > C35
FLAT C30 > C35
SAME C31 > C35 C30
SAME C30 C35 < C31
EADP C26 C31
SADI C31 C34 C30 C33 C35 C32
C30   1    0.320135    0.470977    0.307720    10.25000    0.09636    0.11719 =
         0.11403    0.04689    0.02858    0.02642
AFIX  43
H30   2    0.298891    0.452688    0.332303    10.25000   -1.20000
AFIX   0
C31   1    0.294365    0.488425    0.255617    10.25000    0.08246    0.09777 =
         0.04553   -0.02348    0.04092   -0.00147
AFIX  43
H31   2    0.257814    0.485232    0.248988    10.25000   -1.20000
AFIX   0
C32   1    0.332984    0.511311    0.215648    10.25000    0.11535    0.07058 =
         0.06441   -0.02831    0.05040   -0.00403
AFIX  43
H32   2    0.319329    0.523026    0.182993    10.25000   -1.20000
AFIX   0
C33   1    0.392859    0.516627    0.224931    10.25000    0.11067    0.07151 =
         0.12239    0.02215    0.06261   -0.02200
AFIX  43
H33   2    0.415392    0.532007    0.199519    10.25000   -1.20000
AFIX   0
C34   1    0.413502    0.495988    0.276685    10.25000    0.10397    0.03203 =
         0.17176    0.03701    0.03298    0.00500
AFIX  43
H34   2    0.450336    0.492098    0.280946    10.25000   -1.20000
AFIX   0
C35   1    0.377497    0.481120    0.322451    10.25000    0.12100    0.09545 =
         0.12073    0.05598   -0.00364   -0.00291
AFIX  43
H35   2    0.389881    0.478383    0.357511    10.25000   -1.20000
AFIX   0
 
PART 0
PART -3 10.25
SIMU 0.02 C40 > N42
DELU 0.005 C40 > N42
DFIX 1.45 C40 C41
DFIX 1.15 N42 C40
DFIX 2.55 N42 C41
C40   1    0.308866    0.442737    0.460071    10.25000    0.08429    0.13366 =
         0.09201    0.01208   -0.01485   -0.06027
C41   1    0.326693    0.405452    0.500477    10.25000    0.11005    0.05370 =
         0.08710   -0.03275    0.02220    0.00807
AFIX  33
H40A  2    0.361767    0.392530    0.491417    10.25000   -1.50000
H40B  2    0.302203    0.375853    0.502308    10.25000   -1.50000
H40C  2    0.327972    0.423163    0.534593    10.25000   -1.50000
AFIX   0
N42   3    0.307352    0.465065    0.423455    10.25000    0.11385    0.27212 =
         0.10261    0.04718   -0.02738    0.01787
PART 0
HKLF 4
 
REM  I-43d in I-43d
REM R1 =  0.0321 for    2483 Fo > 4sig(Fo)  and  0.0384 for all    2743 data
REM    247 parameters refined using    194 restraints
 
END 
 
WGHT      0.0416     14.6824 

REM Instructions for potential hydrogen bonds

REM No hydrogen bonds found for HTAB generation

REM Highest difference peak  0.207,  deepest hole -0.267,  1-sigma level  0.039
Q1    1   0.5068  0.4714  0.4700  11.00000  0.05    0.18
Q2    1   0.3175  0.4927  0.2356  11.00000  0.05    0.18
Q3    1   0.5424  0.5099  0.4728  11.00000  0.05    0.17

