REM Solution 1  R1  0.081,  Alpha = 0.0146  in P31c
REM Flack x = -0.072 ( 0.041 ) from Parsons' quotients
REM C19.667 N2.667 P4
TITL p-31c-neu in P-31c
CELL  0.71073  12.5067  12.5067  24.5615   90.000   90.000  120.000
ZERR   2   0.0043   0.0043   0.0085   0.000   0.000   0.000
LATT -1
SYMM -Y, X-Y, Z
SYMM -X+Y, -X, Z
SYMM Y, X, 1/2+Z
SYMM X-Y, -Y, 1/2+Z
SYMM -X, -X+Y, 1/2+Z
SFAC C H N P Cl
UNIT 120 186 14 12 12
TEMP -173.000
OMIT 0   0   2
L.S. 10
BOND $H
ACTA
CONF

LIST 4
FMAP 2
PLAN 40
WGHT    0.034600    0.643600
FVAR       0.22604   0.76052   0.85152
N3    3    0.333333    0.666667    0.451910    10.33333    0.03861    0.03861 =
         0.08508    0.00000    0.00000    0.01931
C23   1    0.333333    0.666667    0.557385    10.33333    0.03402    0.03402 =
         0.08915    0.00000    0.00000    0.01701
AFIX 137
H23A  2    0.402538    0.658074    0.570685    10.33333   -1.50000
H23B  2    0.255536    0.597462    0.570685    10.33333   -1.50000
H23C  2    0.341926    0.744464    0.570685    10.33333   -1.50000
AFIX   0
C24   1    0.333333    0.666667    0.498258    10.33333    0.02354    0.02354 =
         0.08455    0.00000    0.00000    0.01177
CL1   5    0.629304    0.639920    0.624939    11.00000    0.01547    0.01791 =
         0.02428   -0.00077   -0.00018    0.00586
CL2   5    0.304944    0.322118    0.301971    11.00000    0.01480    0.01856 =
         0.02708    0.00328    0.00049    0.00870

REM  ##########
REM  Molekuel 1
REM  ##########
 
P1    4    0.342244    0.295314    0.631261    11.00000    0.01034    0.01241 =
         0.01613   -0.00002    0.00018    0.00416
PART 1
N1    3    0.226172    0.154594    0.640737    31.00000    0.01038    0.01176 =
         0.02529    0.00061   -0.00164    0.00435
H1    2    0.245554    0.097197    0.643752    31.00000   -1.30000
C1    1    0.000000    0.000000    0.700589    30.33333    0.01374    0.01374 =
         0.01788    0.00000    0.00000    0.00687
AFIX 137
H1A   2    0.035397   -0.049518    0.713889    30.33333   -1.50000
H1B   2   -0.084915   -0.035397    0.713889    30.33333   -1.50000
H1C   2    0.049518    0.084915    0.713889    30.33333   -1.50000
AFIX   0
C2    1    0.000000    0.000000    0.638319    30.33333    0.00953    0.00953 =
         0.01652    0.00000    0.00000    0.00476
C3    1    0.106350    0.120870    0.615617    31.00000    0.00828    0.01237 =
         0.02284    0.00192   -0.00063    0.00365
AFIX  23
H3A   2    0.112067    0.112325    0.575810    31.00000   -1.20000
H3B   2    0.088009    0.188258    0.621903    31.00000   -1.20000
AFIX   0
PART 2
 
C4    1    0.306898    0.405021    0.659149    11.00000    0.01911    0.01442 =
         0.02384   -0.00287    0.00182    0.00824
AFIX 137
H4A   2    0.233993    0.397954    0.640859    11.00000   -1.50000
H4B   2    0.377153    0.488398    0.653805    11.00000   -1.50000
H4C   2    0.290042    0.389252    0.698171    11.00000   -1.50000
AFIX   0
C5    1    0.470340    0.305628    0.667286    11.00000    0.01645    0.02213 =
         0.02460   -0.00207   -0.00391    0.00888
AFIX 137
H5A   2    0.453211    0.298639    0.706457    11.00000   -1.50000
H5B   2    0.544083    0.385295    0.659564    11.00000   -1.50000
H5C   2    0.484349    0.238639    0.655701    11.00000   -1.50000
AFIX   0
REM  ##########

HKLF 4
 
REM  p-31c-neu in P-31c
REM R1 =  0.0308 for    4999 Fo > 4sig(Fo)  and  0.0343 for all    5352 data
REM    287 parameters refined using    365 restraints
 
END 
 
WGHT      0.0348      0.6278 

REM Highest difference peak  0.224,  deepest hole -0.252,  1-sigma level  0.053
 !Q1    1   0.4074  0.2995  0.6529  11.00000  0.05    0.22
 !Q2    1   0.6988  0.6930  0.2844  11.00000  0.05    0.22
 !Q3    1   0.6041  0.5504  0.3254  11.00000  0.05    0.22
 !Q40   1   0.8809  0.9280  0.3680  11.00000  0.05    0.13
