TITL ''@ 2240189.res
CELL  0.71073 16.193 16.193 11.2421 90 90 120
ZERR 6  0.00150  0.00150  0.00110  0.00000  0.00000  0.00000
LATT -1
SYMM  -y, +x-y, +z
SYMM  +y, +x, 1/2-z
SYMM  -x+y, -x, +z
SYMM  -x, -x+y, 1/2-z
SYMM  +x-y, -y, 1/2-z
SYMM  -x, -y, -z
SYMM  +y, -x+y, -z
SYMM  -y, -x, 1/2+z
SYMM  +x-y, +x, -z
SYMM  +x, +x-y, 1/2+z
SYMM  -x+y, +y, 1/2+z
SYMM  2/3+x, 1/3+y, 1/3+z
SYMM  1/3+x, 2/3+y, 2/3+z
SYMM  2/3-y, 1/3+x-y, 1/3+z
SYMM  1/3-y, 2/3+x-y, 2/3+z
SYMM  2/3+y, 1/3+x, 5/6-z
SYMM  1/3+y, 2/3+x, 1/6-z
SYMM  2/3-x+y, 1/3-x, 1/3+z
SYMM  1/3-x+y, 2/3-x, 2/3+z
SYMM  2/3-x, 1/3-x+y, 5/6-z
SYMM  1/3-x, 2/3-x+y, 1/6-z
SYMM  2/3+x-y, 1/3-y, 5/6-z
SYMM  1/3+x-y, 2/3-y, 1/6-z
SYMM  2/3-x, 1/3-y, 1/3-z
SYMM  1/3-x, 2/3-y, 2/3-z
SYMM  2/3+y, 1/3-x+y, 1/3-z
SYMM  1/3+y, 2/3-x+y, 2/3-z
SYMM  2/3-y, 1/3-x, 5/6+z
SYMM  1/3-y, 2/3-x, 1/6+z
SYMM  2/3+x-y, 1/3+x, 1/3-z
SYMM  1/3+x-y, 2/3+x, 2/3-z
SYMM  2/3+x, 1/3+x-y, 5/6+z
SYMM  1/3+x, 2/3+x-y, 1/6+z
SYMM  2/3-x+y, 1/3+y, 5/6+z
SYMM  1/3-x+y, 2/3+y, 1/6+z
SFAC Fe Cl O H 
UNIT 6.00012 18 126 108

REM ######################################################
REM This file exported by ShelXle is for information or 
REM visualiztion purposes only. You may run into trouble 
REM if you try to refine it against data.
REM DISABLE_REFINE
REM ######################################################

FVAR 1.00 0.31437 0.77327 

FE1   1   0.000000   0.000000   0.500000  10.16667   0.01569   0.01569 =
      0.02514   0.00000   0.00000   0.00785
O1    3   0.074199   0.116656   0.399075  11.00000   0.01652   0.01952 =
      0.03410   0.00449  -0.00042   0.00501
O4    3   0.333333   0.478579   0.416667  10.50000   0.02692   0.01636 =
      0.03441   0.00511   0.01022   0.01346
PART 1
CL1   2   0.333333   0.254007   0.416667  20.50000   0.02206   0.01370 =
      0.06587  -0.00899  -0.01798   0.01103
O2    3   0.413419   0.343751   0.380790  21.00000   0.01796   0.03808 =
      0.05101   0.00982  -0.00271   0.01744
O3    3   0.306966   0.191395   0.310987  21.00000   0.04471   0.03449 =
      0.06675  -0.02761  -0.00549   0.02098
PART 2
CL1'  2   0.333333   0.254237   0.416667 -20.50000   0.02206   0.01370 =
      0.06587  -0.00899  -0.01798   0.01103
O2'   3   0.394563   0.349869   0.352747 -21.00000   0.01796   0.03808 =
      0.05101   0.00982  -0.00271   0.01744
O3'   3   0.269901   0.171645   0.360231 -21.00000   0.04471   0.03449 =
      0.06675  -0.02761  -0.00549   0.02098
PART 0
H1A   4   0.129294   0.158128   0.416868  11.00000 0.04654!x
H1B   4   0.047888   0.137812   0.357196  11.00000 0.05102!x
H4    4   0.375050   0.468374   0.388184  11.00000 0.05447!x
RESI -1 Q-Peak
Q1    1   0.259967   0.229033   0.486133  11.00000   0.05000      0.64
Q2    1   0.366167   0.291333   0.382933  11.00000   0.05000      0.45
Q3    1   0.402700   0.342600   0.432800  11.00000   0.05000      0.43
Q4    1   0.315000   0.232100   0.297500  11.00000   0.05000      0.32
Q5    1   0.329700   0.196300   0.366200  11.00000   0.05000      0.31
RESI 0 
H4    4   0.291617   0.426657   0.445149  11.00000 0.05447!x
PART 2
O2'   3   0.272104   0.288639   0.480586 -21.00000   0.01796   0.02116 =
      0.05101  -0.01253  -0.00271   0.00052
O3'   3   0.396766   0.235077   0.473102 -21.00000   0.04471   0.03724 =
      0.06675   0.02212  -0.00549   0.02373
PART 1
O2    3   0.253248   0.263665   0.452543  21.00000   0.01796   0.02116 =
      0.05101  -0.01253  -0.00271   0.00052
O3    3   0.359701   0.217762   0.522346  21.00000   0.04471   0.03724 =
      0.06675   0.02212  -0.00549   0.02373
PART 0
O1    3  -0.116656  -0.042457   0.399075  11.00000   0.01952   0.02602 =
      0.03410  -0.00491  -0.00449   0.01451
H1A   4  -0.158128  -0.028834   0.416868  11.00000 0.04654!x
H1B   4  -0.137812  -0.089924   0.357196  11.00000 0.05102!x
O1    3   0.042457  -0.074199   0.399075  11.00000   0.02602   0.01652 =
      0.03410   0.00042   0.00491   0.01151
H1A   4   0.028834  -0.129294   0.416868  11.00000 0.04654!x
H1B   4   0.089924  -0.047888   0.357196  11.00000 0.05102!x
O1    3  -0.074199  -0.116656   0.600925  11.00000   0.01652   0.01952 =
      0.03410   0.00449  -0.00042   0.00501
H1A   4  -0.129294  -0.158128   0.583132  11.00000 0.04654!x
H1B   4  -0.047888  -0.137812   0.642804  11.00000 0.05102!x
O1    3   0.116656   0.042457   0.600925  11.00000   0.01952   0.02602 =
      0.03410  -0.00491  -0.00449   0.01451
H1A   4   0.158128   0.028834   0.583132  11.00000 0.04654!x
H1B   4   0.137812   0.089924   0.642804  11.00000 0.05102!x
O1    3  -0.042457   0.074199   0.600925  11.00000   0.02602   0.01652 =
      0.03410   0.00042   0.00491   0.01151
H1A   4  -0.028834   0.129294   0.583132  11.00000 0.04654!x
H1B   4  -0.089924   0.047888   0.642804  11.00000 0.05102!x


EQIV $1  2/3-x, 1/3-x+y, 5/6-z
EQIV $2  2/3-x, 1/3-x+y, 5/6-z
EQIV $3  2/3-x, 1/3-x+y, 5/6-z
EQIV $4  -y, +x-y, +z
EQIV $5  -x+y, -x, +z
EQIV $6  -x, -y, 1-z
EQIV $7  +y, -x+y, 1-z
EQIV $8  +x-y, +x, 1-z


BIND O1 FE1
BIND O2_a CL1_a
BIND O3_a CL1_a
BIND O2'_b CL1'_b
BIND O3'_b CL1'_b
BIND H1A O1
BIND H1B O1
BIND H4 O4
BIND_$1 H4 O4
BIND_$2 O2'_b CL1'_b
BIND_$2 O3'_b CL1'_b
BIND_$3 O2_a CL1_a
BIND_$3 O3_a CL1_a
BIND_$4 O1 FE1
BIND_$4 H1A O1
BIND_$4 H1B O1
BIND_$5 O1 FE1
BIND_$5 H1A O1
BIND_$5 H1B O1
BIND_$6 O1 FE1
BIND_$6 H1A O1
BIND_$6 H1B O1
BIND_$7 O1 FE1
BIND_$7 H1A O1
BIND_$7 H1B O1
BIND_$8 O1 FE1
BIND_$8 H1A O1
BIND_$8 H1B O1

HKLF 0 !don't refine this
END
