TITL
    2240189.res
    created by SHELXL-2018/3 at 11:49:50 on 01-Oct-2022
CELL  0.71073 16.19300 16.19300 11.24210 90.00000 90.00000 120.00000
ZERR 6  0.00150  0.00150  0.00110  0.00000  0.00000  0.00000
LATT 3
SYMM -Y, X-Y, Z
SYMM Y, X, -Z+ 0.50000
SYMM -X+Y, -X, Z
SYMM -X, -X+Y, -Z+ 0.50000
SYMM X-Y, -Y, -Z+ 0.50000
SFAC Fe Cl O  H
UNIT 6  18  126  108
OMIT -3 55
L.S. 0
REM ACTA
BOND
LIST 4
FMAP 2
PLAN 5
EADP O3 O3'
EADP O2 O2'
EADP Cl1 Cl1'
HTAB
HTAB O1 Cl1
EQIV $1 -x+2/3, -x+y+1/3, -z+5/6
HTAB O1 O2_$1
HTAB O1 O2'_$1
HTAB O1 O3'
EQIV $2 -x+1/3, -y+2/3, -z+2/3
HTAB O1 O4_$2
HTAB O4 O2
EQIV $3 y+1/3, -x+y+2/3, -z+2/3
HTAB O4 O3_$3
HTAB O4 O2'
HTAB O4 O3'_$3
WGHT    0.026900   23.913403
FVAR       0.31437   0.77327
MOLE 1
FE1   1    0.000000    0.000000    0.500000    10.16667    0.01569    0.01569 =
         0.02514    0.00000    0.00000    0.00785
O1    3    0.074199    0.116656    0.399075    11.00000    0.01652    0.01952 =
         0.03410    0.00449   -0.00042    0.00501
O4    3    0.333333    0.478579    0.416667    10.50000    0.02692    0.01636 =
         0.03441    0.00511    0.01022    0.01346
PART 1
CL1   2    0.333333    0.254007    0.416667    20.50000    0.02206    0.01370 =
         0.06587   -0.00899   -0.01798    0.01103
O2    3    0.413419    0.343751    0.380790    21.00000    0.01796    0.03808 =
         0.05101    0.00982   -0.00271    0.01744
O3    3    0.306966    0.191395    0.310987    21.00000    0.04471    0.03449 =
         0.06675   -0.02761   -0.00549    0.02098
PART 2
CL1'  2    0.333333    0.254237    0.416667   -20.50000    0.02206    0.01370 =
         0.06587   -0.00899   -0.01798    0.01103
O2'   3    0.394563    0.349869    0.352747   -21.00000    0.01796    0.03808 =
         0.05101    0.00982   -0.00271    0.01744
O3'   3    0.269901    0.171645    0.360231   -21.00000    0.04471    0.03449 =
         0.06675   -0.02761   -0.00549    0.02098
PART 0
H1A   4    0.129294    0.158128    0.416868    11.00000    0.04654
H1B   4    0.047888    0.137812    0.357196    11.00000    0.05102
H4    4    0.375050    0.468374    0.388184    11.00000    0.05447
HKLF 4




REM
REM wR2 = 0.0916, GooF = S = 1.113, Restrained GooF = 1.113 for all data
REM R1 = 0.0413 for 640 Fo > 4sig(Fo) and 0.0423 for all 658 data
REM 60 parameters refined using 0 restraints

END  
     
WGHT      0.0275     23.0848 

REM Instructions for potential hydrogen bonds
HTAB O1 Cl1
HTAB O1 O2_$1
HTAB O1 O2'_$1
HTAB O1 O3'
HTAB O1 O4_$2
HTAB O4 O2
HTAB O4 O3_$3
HTAB O4 O2'
HTAB O4 O3'_$3

REM Highest difference peak  0.644,  deepest hole -0.800,  1-sigma level  0.081
Q1    1   0.4067  0.3024  0.3472  11.00000  0.05    0.64
Q2    1   0.3005  0.2585  0.4504  11.00000  0.05    0.45
Q3    1   0.4027  0.3426  0.4328  11.00000  0.05    0.43
Q4    1   0.3150  0.2321  0.2975  11.00000  0.05    0.32
Q5    1   0.3297  0.1963  0.3662  11.00000  0.05    0.31
