TITL P21n in P2(1)/n
CELL  0.71073   9.9199   9.5808  18.1079   90.000  105.506   90.000
ZERR    4.00   0.0012   0.0011   0.0022   0.000   0.003   0.000
LATT 1
SYMM 1/2-X, 1/2+Y, 1/2-Z
SFAC C  H  N
UNIT 88 80 8
L.S. 15
ACTA
BOND $H
FMAP 2
HTAB
PLAN 20
CONF
TEMP -173
WGHT    0.079100    0.773600
FVAR       0.15916
N1    3    0.560600    0.373727    0.162013    11.00000    0.02436    0.01465 =
         0.02743    0.00111    0.00668    0.00230
N2    3    0.077011    0.748063    0.114140    11.00000    0.02470    0.01305 =
         0.02799   -0.00101    0.00671    0.00028
C1    1    0.498013    0.502539    0.142184    11.00000    0.02805    0.01321 =
         0.02703    0.00093    0.00508    0.00195
AFIX  43
H1    2    0.537231    0.578391    0.121223    11.00000   -1.20000
AFIX   0
C2    1    0.370884    0.502598    0.157687    11.00000    0.02358    0.01666 =
         0.02460   -0.00151    0.00335    0.00296
C3    1    0.354551    0.367870    0.188353    11.00000    0.02593    0.02102 =
         0.02626   -0.00029    0.00705    0.00066
AFIX  43
H3    2    0.276016    0.337170    0.204598    11.00000   -1.20000
AFIX   0
C4    1    0.471661    0.290937    0.190220    11.00000    0.02755    0.01771 =
         0.02349    0.00026    0.00546    0.00018
C5    1    0.130626    0.614118    0.129442    11.00000    0.02744    0.01189 =
         0.02589    0.00031    0.00659    0.00224
AFIX  43
H5    2    0.077415    0.532137    0.130703    11.00000   -1.20000
AFIX   0
C6    1    0.272403    0.619849    0.142361    11.00000    0.02586    0.01791 =
         0.02301   -0.00026    0.00594    0.00362
C7    1    0.306778    0.762291    0.133755    11.00000    0.02381    0.01952 =
         0.02767   -0.00073    0.00413   -0.00067
AFIX  43
H7    2    0.398252    0.797901    0.139046    11.00000   -1.20000
AFIX   0
C8    1    0.187014    0.838730    0.116726    11.00000    0.02671    0.01704 =
         0.02577   -0.00208    0.00484   -0.00254
C9    1    0.168265    0.991339    0.101432    11.00000    0.03122    0.01575 =
         0.04044    0.00288    0.00360   -0.00041
AFIX 137
H9A   2    0.158857    1.038940    0.147698    11.00000   -1.50000
H9B   2    0.083829    1.007092    0.059522    11.00000   -1.50000
H9C   2    0.249780    1.028326    0.087019    11.00000   -1.50000
AFIX   0
C10   1    0.504807    0.142713    0.213440    11.00000    0.03389    0.01768 =
         0.03641    0.00300    0.01187    0.00317
AFIX 137
H10A  2    0.424004    0.099645    0.225902    11.00000   -1.50000
H10B  2    0.585687    0.139583    0.258502    11.00000   -1.50000
H10C  2    0.526494    0.091588    0.171160    11.00000   -1.50000
AFIX   0
C11   1    0.689814    0.336191    0.147613    11.00000    0.02388    0.01154 =
         0.02870   -0.00217    0.00490   -0.00111
C12   1    0.799768    0.284667    0.205586    11.00000    0.02962    0.02010 =
         0.02368    0.00066    0.00462    0.00193
AFIX  43
H12   2    0.788826    0.271129    0.255634    11.00000   -1.20000
AFIX   0
C13   1    0.925570    0.253096    0.190031    11.00000    0.02709    0.02006 =
         0.03127   -0.00027    0.00005    0.00279
AFIX  43
H13   2    1.000805    0.216846    0.229462    11.00000   -1.20000
AFIX   0
C14   1    0.942470    0.274030    0.117310    11.00000    0.02527    0.01415 =
         0.03630   -0.00389    0.00889    0.00013
AFIX  43
H14   2    1.029445    0.253556    0.107090    11.00000   -1.20000
AFIX   0
C15   1    0.832194    0.324848    0.059682    11.00000    0.03373    0.01620 =
         0.02816    0.00028    0.00936   -0.00158
AFIX  43
H15   2    0.843641    0.339501    0.009824    11.00000   -1.20000
AFIX   0
C16   1    0.705839    0.354315    0.074243    11.00000    0.02606    0.01723 =
         0.02687    0.00046    0.00321    0.00201
AFIX  43
H16   2    0.629660    0.387011    0.034173    11.00000   -1.20000
AFIX   0
C17   1   -0.067575    0.780152    0.091457    11.00000    0.02262    0.01523 =
         0.02691    0.00276    0.00765    0.00209
C18   1   -0.158426    0.698403    0.036307    11.00000    0.03009    0.01450 =
         0.02971   -0.00002    0.00925    0.00063
AFIX  43
H18   2   -0.123112    0.621430    0.014161    11.00000   -1.20000
AFIX   0
C19   1   -0.299565    0.728829    0.013720    11.00000    0.02841    0.02157 =
         0.03076    0.00167    0.00530   -0.00338
AFIX  43
H19   2   -0.361334    0.671378   -0.022989    11.00000   -1.20000
AFIX   0
C20   1   -0.351620    0.843262    0.044514    11.00000    0.02480    0.02413 =
         0.03847    0.00670    0.00864    0.00318
AFIX  43
H20   2   -0.448478    0.865212    0.028511    11.00000   -1.20000
AFIX   0
C21   1   -0.260479    0.924950    0.098853    11.00000    0.03403    0.01865 =
         0.03773   -0.00011    0.01263    0.00648
AFIX  43
H21   2   -0.295445    1.003768    0.119667    11.00000   -1.20000
AFIX   0
C22   1   -0.119773    0.893536    0.123166    11.00000    0.02985    0.01838 =
         0.03029   -0.00201    0.00771    0.00025
AFIX  43
H22   2   -0.058849    0.949018    0.161352    11.00000   -1.20000
AFIX 0
HKLF 4
 
REM  P21n in P2(1)/n
REM R1 =  0.0517 for   2480 Fo > 4sig(Fo)  and  0.0643 for all   3033 data
REM    219 parameters refined using      0 restraints
 
END  
     
WGHT      0.0791      0.7736 
REM Highest difference peak  0.267,  deepest hole -0.301,  1-sigma level  0.067
Q1    1   0.8836  0.2969  0.2052  11.00000  0.05    0.27
Q2    1   0.6840  0.3075  0.2063  11.00000  0.05    0.24
Q3    1   0.6855  0.3367  0.1062  11.00000  0.05    0.24
Q4    1   0.6392  0.3587  0.1589  11.00000  0.05    0.23
Q5    1   0.0715  0.7453  0.0577  11.00000  0.05    0.23
Q6    1   0.7861  0.3337  0.0885  11.00000  0.05    0.22
Q7    1   0.2136  0.6206  0.1701  11.00000  0.05    0.21
Q8    1   0.5675  0.3540  0.2117  11.00000  0.05    0.20
Q9    1   0.4669  0.5123  0.1786  11.00000  0.05    0.20
Q10   1   0.4377  0.3378  0.2255  11.00000  0.05    0.20
Q11   1   1.0374  0.2737  0.1950  11.00000  0.05    0.20
Q12   1   0.5247  0.3569  0.0520  11.00000  0.05    0.19
Q13   1   0.9609  0.3077  0.0544  11.00000  0.05    0.19
Q14   1   0.6398  0.1529  0.2236  11.00000  0.05    0.18
Q15   1   1.0498  0.2802  0.1127  11.00000  0.05    0.18
Q16   1   0.9629  0.3123 -0.0062  11.00000  0.05    0.18
Q17   1  -0.2236  0.7329  0.0027  11.00000  0.05    0.18
Q18   1   0.3997  0.4988  0.1160  11.00000  0.05    0.18
Q19   1   1.0436  0.3074  0.0367  11.00000  0.05    0.17
Q20   1   0.2010  0.6090  0.1037  11.00000  0.05    0.17
