TITL p21c in P2(1)/c
    created by SHELXL-2018/3 at 16:18:25 on 03-May-2018
CELL 0.71073 10.5086 20.9035 20.5072 90 94.13 90
ZERR 4 0.0003 0.0005 0.0005 0 0.001 0
LATT 1
SYMM  -X, 0.5+Y, 0.5-Z
SFAC C H O F Al Ga
UNIT 1 2 3 4 5 6
LIST 4 ! automatically inserted. Change 6 to 4 for CHECKCIF!!
L.S. 10
PLAN  20
TEMP -173.18
ACTA 45
SIZE 0.12 0.23 0.33
DELU 0.04
fmap 2
REM Restraints for Fragment oc(cf3)3, Nonafluoro-tert-butoxy, [(CF3)3CO]- REM  =
   from: TURBOMOLE V6.0 B-P86/def-SV(P). Please cite
REM doi:10.1107/S1600576715005580

SADI 0.01 C1 C2 C1 C3 C4 C3
SIMU 0.02 C1 > C4_1
DFIX 1.44 0.02 O1 C1

WGHT   0.049 0.0
FVAR   0.08684   0.48096   0.55764

O1    3    0.074835    0.238436    0.402457   -31.00000    0.01579    0.03095 =
         0.01852   -0.00468   -0.00210    0.01153
C1    1    0.028576    0.234542    0.337234   -31.00000    0.02311    0.03617 =
         0.01096   -0.01000    0.00201    0.00356
C2    1    0.121540    0.194460    0.298291   -31.00000    0.02960    0.04586 =
         0.01555   -0.00485   -0.00023    0.01102
RESI 1 CCF3
C3    1   -0.103502    0.202241    0.332346   -31.00000    0.02864    0.06150 =
         0.01464   -0.00621   -0.00347   -0.00667
C4    1    0.018702    0.302508    0.307595   -31.00000    0.04608    0.04134 =
         0.01911   -0.00021   -0.00914    0.00573
RESI 0
AFIX  43
H34   2    0.340371    0.506496   0.203858   11.00000   -1.20000
AFIX   0

HKLF 4

REM p21c in P2(1)/c
REM wR2 = 0.1005, GooF = S = 1.016, Restrained GooF = 0.950 for all data
REM R1 = 0.0400 for 7085 Fo > 4sig(Fo) and 0.0794 for all 10786 data
REM 945 parameters refined using 1842 restraints

END 
 
WGHT      0.0491      0.0000 

REM Highest difference peak  0.407,  deepest hole -0.691,  1-sigma level  0.073
Q1    1    0.6917    0.6019    0.2177   11.00000  0.04      0.41     
Q2    1    0.7505    0.5648    0.2191   11.00000  0.04      0.36     
Q3    1    0.6807    0.5284    0.2072   11.00000  0.04      0.36     
Q4    1    0.7404    0.4707    0.0667   11.00000  0.04      0.34     
Q5    1    0.2757    0.3719    0.4871   11.00000  0.04      0.33     
Q6    1    0.6861    0.3929    0.0902   11.00000  0.04      0.33     
Q7    1    0.5916    0.5882    0.2738   11.00000  0.04      0.32     
Q8    1    0.6394    0.4371    0.3133   11.00000  0.04      0.31     
Q9    1   -0.1805    0.3161    0.5155   11.00000  0.04      0.31     
Q10   1    0.1831    0.3570    0.4989   11.00000  0.04      0.31     
Q11   1   -0.1286    0.2541    0.4775   11.00000  0.04      0.30     
Q12   1    0.5863    0.6686    0.2340   11.00000  0.04      0.30     
Q13   1    0.5935    0.5392    0.2790   11.00000  0.04      0.30     
Q14   1    0.1384    0.3035    0.4745   11.00000  0.04      0.30     
Q15   1   -0.1350    0.2675    0.5111   11.00000  0.04      0.30     
Q16   1    0.5875    0.5160    0.2605   11.00000  0.04      0.29     
Q17   1    0.3483    0.5661    0.2460   11.00000  0.04      0.29     
Q18   1    0.8796    0.5411    0.3471   11.00000  0.04      0.28     
Q19   1   -0.1711    0.2796    0.5594   11.00000  0.04      0.28     
Q20   1   -0.1122    0.2225    0.4997   11.00000  0.04      0.27     
