
TITL test_a.res in P2(1)2(1)2(1)
    test_a.res
    created by SHELXL-2019/3 at 13:33:22 on 17-Jun-2025
REM Old TITL test in P2(1)2(1)2(1)
REM SHELXT solution in P2(1)2(1)2(1): R1 0.091, Rweak 0.032, Alpha 0.001
REM <I/s>   2.621 for   21 systematic absences,  Orientation as input
REM Flack x =  0.081 ( 0.019 ) from   807 Parsons' quotients
REM Formula found by SHELXT:  C11 O2 S

CELL  0.71073   5.9682   9.0435  18.3940   90.000   90.000   90.000
ZERR    4.000   0.0001   0.0001   0.0003    0.000    0.000    0.000
LATT -1
SYMM 1/2-X, -Y, 1/2+Z
SYMM -X, 1/2+Y, 1/2-Z
SYMM 1/2+X, 1/2-Y, -Z
SFAC C H O S
UNIT 44 40 8 4

+test_a.bodd
TEMP 28.850
SIZE 0.30 0.30 0.30
L.S. 10
BOND $H
LIST 4
ACTA
CONF
FMAP 2
PLAN 20

WGHT    0.028500    0.044600
FVAR       1.04075   0.39165   0.51366   0.62866
S1    4    0.190322    0.680965    0.259571    11.00000    0.03991    0.03332 =
         0.03877    0.00410   -0.00881   -0.00505
O1    3    0.663348    0.802468    0.322999    11.00000    0.04339    0.05096 =
         0.05847    0.01338   -0.00279   -0.01147
O2    3    0.157490    0.410779    0.370796    11.00000    0.06142    0.04478 =
         0.05380    0.00874   -0.00944   -0.01838
C1    1    0.640492    0.614076    0.417387    11.00000    0.03846    0.03702 =
         0.03591   -0.00307   -0.00452    0.00626
C2    1    0.489037    0.502042    0.431857    11.00000    0.05065    0.03245 =
         0.03224   -0.00132   -0.00430    0.00516
C3    1    0.512193    0.412320    0.492121    11.00000    0.07502    0.04056 =
         0.03721    0.00505   -0.01026    0.00013
AFIX  43
H3    2    0.409201    0.337913    0.502187    11.00000   -1.20000
AFIX   0
C4    1    0.697702    0.437739    0.537778    11.00000    0.08842    0.04908 =
         0.03961    0.00202   -0.01978    0.01084
AFIX  43
H4    2    0.718587    0.378820    0.578659    11.00000   -1.20000
AFIX   0
C5    1    0.850069    0.549919    0.522460    11.00000    0.06565    0.05562 =
         0.04914   -0.00350   -0.02383    0.01079
AFIX  43
H5    2    0.971986    0.564641    0.553105    11.00000   -1.20000
AFIX   0
C6    1    0.822405    0.640999    0.461525    11.00000    0.04665    0.05212 =
         0.04709   -0.00087   -0.01224    0.00436
AFIX  43
H6    2    0.922981    0.716724    0.451265    11.00000   -1.20000
AFIX   0
C7    1    0.566397    0.695116    0.350343    11.00000    0.03339    0.03373 =
         0.03779    0.00177    0.00054    0.00155
C8    1    0.363959    0.623727    0.327809    11.00000    0.03852    0.03369 =
         0.03505    0.00508   -0.00477   -0.00126
C9    1    0.310534    0.501066    0.374745    11.00000    0.04450    0.03056 =
         0.03371    0.00079   -0.00168   -0.00215
C10   1    0.350620    0.675553    0.177430    11.00000    0.09125    0.05692 =
         0.03643    0.00365    0.00566    0.00583
AFIX 137
H10A  2    0.373786    0.574572    0.163199    11.00000   -1.50000
H10B  2    0.492922    0.722368    0.185321    11.00000   -1.50000
H10C  2    0.271170    0.726814    0.139692    11.00000   -1.50000
AFIX   0
C11   1    0.164192    0.876301    0.271127    11.00000    0.04985    0.03576 =
         0.06305    0.00086   -0.01274    0.00922
AFIX 137
H11A  2    0.310568    0.920150    0.272986    11.00000   -1.50000
H11B  2    0.085921    0.896631    0.315613    11.00000   -1.50000
H11C  2    0.082043    0.917114    0.230992    11.00000   -1.50000

REM <hkl>
REM test_a.hkl
REM </hkl>
AFIX   0
HKLF 4

L1      2    0.32950    0.63509    0.31426  !    0.18094    0.21368  S1
L2      2    0.19032    0.68096    0.25957  !   -0.18094    0.36085  S1
L3      2    0.30125    0.67722    0.20273  !    0.05836    0.23628  S1
L4      2    0.19032    0.68096    0.25957  !   -0.05836    0.36085  S1
L5      2    0.17224    0.81614    0.26757  !    0.05836    0.23628  S1
L6      2    0.19032    0.68096    0.25957  !   -0.05836    0.36085  S1
L7      2    0.62549    0.76055    0.33368  !    0.26201    0.09811  O1
L8      2    0.66335    0.80247    0.32300  !   -0.26201    0.34450  O1
L9      2    0.21710    0.44594    0.37233  !    0.26201    0.09811  O2
L10     2    0.15749    0.41078    0.37080  !   -0.26201    0.34450  O2
L11     2    0.72436    0.62649    0.43774  !    0.24831    0.11403  C1
L12     2    0.64049    0.61408    0.41739  !   -0.24831    0.38159  C1
L13     2    0.55183    0.54849    0.42586  !    0.24282    0.15718  C1
L14     2    0.64049    0.61408    0.41739  !   -0.24282    0.38159  C1
L15     2    0.60155    0.65667    0.38215  !    0.23695    0.12277  C1
L16     2    0.64049    0.61408    0.41739  !   -0.23695    0.38159  C1
L17     2    0.49977    0.46045    0.45979  !    0.24831    0.11403  C2
L18     2    0.48904    0.50204    0.43186  !   -0.24831    0.38159  C2
L19     2    0.57770    0.56763    0.42339  !    0.24282    0.15718  C2
L20     2    0.48904    0.50204    0.43186  !   -0.24282    0.38159  C2
L21     2    0.39538    0.50153    0.40189  !    0.23695    0.12277  C2
L22     2    0.48904    0.50204    0.43186  !   -0.23695    0.38159  C2
L23     2    0.60294    0.42475    0.51445  !    0.27650    0.11455  C3
L24     2    0.51219    0.41232    0.49212  !   -0.27650    0.36211  C3
L25     2    0.45992    0.37456    0.49723  !    0.23303    0.16386  C3
L26     2    0.51219    0.41232    0.49212  !   -0.23303    0.36211  C3
L27     2    0.49654    0.47295    0.45140  !    0.23538    0.10633  C3
L28     2    0.51219    0.41232    0.49212  !   -0.23538    0.36211  C3
L29     2    0.46380    0.37736    0.49685  !    0.17820    0.17516  H3
L30     2    0.40920    0.33791    0.50219  !   -0.17820    0.35079  H3
L31     2    0.70511    0.41683    0.55228  !    0.25535    0.21882  C4
L32     2    0.69770    0.43774    0.53778  !   -0.25535    0.28667  C4
L33     2    0.57429    0.42083    0.50741  !    0.23381    0.06113  C4
L34     2    0.69770    0.43774    0.53778  !   -0.23381    0.28667  C4
L35     2    0.79747    0.51120    0.52775  !    0.23381    0.06113  C4
L36     2    0.69770    0.43774    0.53778  !   -0.23381    0.28667  C4
L37     2    0.70752    0.41005    0.55699  !    0.17820    0.17516  H4
L38     2    0.71859    0.37882    0.57866  !   -0.17820    0.35079  H4
L39     2    0.89333    0.55514    0.53333  !    0.25535    0.21882  C5
L40     2    0.85007    0.54992    0.52246  !   -0.25535    0.28667  C5
L41     2    0.75030    0.47646    0.53249  !    0.23381    0.06113  C5
L42     2    0.85007    0.54992    0.52246  !   -0.23381    0.28667  C5
L43     2    0.83168    0.61046    0.48196  !    0.23381    0.06113  C5
L44     2    0.85007    0.54992    0.52246  !   -0.23381    0.28667  C5
L45     2    0.90736    0.55684    0.53686  !    0.17820    0.17516  H5
L46     2    0.97199    0.56464    0.55310  !   -0.17820    0.35079  H5
L47     2    0.83593    0.59646    0.49132  !    0.27650    0.11455  C6
L48     2    0.82240    0.64100    0.46152  !   -0.27650    0.36211  C6
L49     2    0.87345    0.67943    0.45632  !    0.23303    0.16386  C6
L50     2    0.82240    0.64100    0.46152  !   -0.23303    0.36211  C6
L51     2    0.70010    0.62290    0.43185  !    0.23538    0.10633  C6
L52     2    0.82240    0.64100    0.46152  !   -0.23538    0.36211  C6
L53     2    0.86966    0.67658    0.45670  !    0.17820    0.17516  H6
L54     2    0.92298    0.71672    0.45126  !   -0.17820    0.35079  H6
L55     2    0.62178    0.63454    0.40045  !    0.18407    0.14845  C7
L56     2    0.56640    0.69512    0.35034  !   -0.18407    0.38159  C7
L57     2    0.61083    0.74432    0.33781  !    0.42416    0.21574  C7
L58     2    0.56640    0.69512    0.35034  !   -0.42416    0.38159  C7
L59     2    0.42538    0.64539    0.33465  !    0.26554    0.14383  C7
L60     2    0.56640    0.69512    0.35034  !   -0.26554    0.38159  C7
L61     2    0.27511    0.65302    0.29289  !    0.23303    0.11198  C8
L62     2    0.36396    0.62373    0.32781  !   -0.23303    0.38159  C8
L63     2    0.49352    0.66942    0.34223  !    0.19230    0.10736  C8
L64     2    0.36396    0.62373    0.32781  !   -0.19230    0.38159  C8
L65     2    0.32964    0.54492    0.35796  !    0.19230    0.10736  C8
L66     2    0.36396    0.62373    0.32781  !   -0.19230    0.38159  C8
L67     2    0.44380    0.50179    0.41738  !    0.18407    0.14845  C9
L68     2    0.31053    0.50107    0.37475  !   -0.18407    0.38159  C9
L69     2    0.24058    0.45980    0.37294  !    0.42416    0.21574  C9
L70     2    0.31053    0.50107    0.37475  !   -0.42416    0.38159  C9
L71     2    0.34793    0.58693    0.34189  !    0.26554    0.14383  C9
L72     2    0.31053    0.50107    0.37475  !   -0.26554    0.38159  C9
L73     2    0.24785    0.67902    0.23009  !    0.19465    0.16437  C10
L74     2    0.35062    0.67555    0.17743  !   -0.19465    0.36085  C10
L75     2    0.35810    0.64294    0.17283  !    0.22246    0.23012  C10
L76     2    0.35062    0.67555    0.17743  !   -0.22246    0.36085  C10
L77     2    0.39657    0.69067    0.17998  !    0.22246    0.23012  C10
L78     2    0.35062    0.67555    0.17743  !   -0.22246    0.36085  C10
L79     2    0.32496    0.69211    0.16524  !    0.22246    0.23012  C10
L80     2    0.35062    0.67555    0.17743  !   -0.22246    0.36085  C10
L81     2    0.36230    0.62464    0.17026  !    0.20287    0.23012  H10A
L82     2    0.37379    0.57457    0.16320  !   -0.20287    0.36085  H10A
L83     2    0.42236    0.69916    0.18141  !    0.20287    0.23012  H10B
L84     2    0.49292    0.72237    0.18532  !   -0.20287    0.36085  H10B
L85     2    0.31056    0.70140    0.15840  !    0.20287    0.23012  H10C
L86     2    0.27117    0.72681    0.13969  !   -0.20287    0.36085  H10C
L87     2    0.18094    0.75108    0.26372  !    0.19465    0.16437  C11
L88     2    0.16419    0.87630    0.27113  !   -0.19465    0.36085  C11
L89     2    0.21146    0.89046    0.27173  !    0.22246    0.23012  C11
L90     2    0.16419    0.87630    0.27113  !   -0.22246    0.36085  C11
L91     2    0.13892    0.88287    0.28549  !    0.22246    0.23012  C11
L92     2    0.16419    0.87630    0.27113  !   -0.22246    0.36085  C11
L93     2    0.13766    0.88948    0.25817  !    0.22246    0.23012  C11
L94     2    0.16419    0.87630    0.27113  !   -0.22246    0.36085  C11
L95     2    0.23799    0.89841    0.27206  !    0.20287    0.23012  H11A
L96     2    0.31057    0.92015    0.27299  !   -0.20287    0.36085  H11A
L97     2    0.12473    0.88655    0.29355  !    0.20287    0.23012  H11B
L98     2    0.08592    0.89663    0.31561  !   -0.20287    0.36085  H11B
L99     2    0.12278    0.89688    0.25089  !    0.20287    0.23012  H11C
L100    2    0.08204    0.91711    0.23099  !   -0.20287    0.36085  H11C
L101    2    0.64387    0.81891    0.30868  !    0.43708    0.17413  O1
L102    2    0.70938    0.81543    0.32983  !    0.43708    0.17413  O1
L103    2    0.66335    0.80247    0.32300  !   -0.87416    0.34450  O1
L104    2    0.12093    0.41197    0.35779  !    0.43708    0.17413  O2
L105    2    0.15181    0.38467    0.38271  !    0.43708    0.17413  O2
L106    2    0.15749    0.41078    0.37080  !   -0.87416    0.34450  O2



     d12       A        B1       B2       r     molecule  atom1 atom2

    1.377    0.235    0.106    0.362    0.926   test_a.res in P2(1)  C6 C1
    1.377    0.248    0.114    0.382    0.635   test_a.res in P2(1)  C1 C6
    1.381    0.235    0.106    0.362    0.933   test_a.res in P2(1)  C3 C2
    1.381    0.248    0.114    0.382    0.640   test_a.res in P2(1)  C2 C3
    1.384    0.243    0.157    0.382    0.810   test_a.res in P2(1)  C2 C1
    1.384    0.243    0.157    0.382    0.810   test_a.res in P2(1)  C1 C2
    1.391    0.234    0.061    0.287    0.911   test_a.res in P2(1)  C5 C4
    1.391    0.234    0.061    0.287    0.911   test_a.res in P2(1)  C4 C5
    1.401    0.277    0.115    0.362    0.685   test_a.res in P2(1)  C6 C5
    1.401    0.234    0.061    0.287    0.931   test_a.res in P2(1)  C5 C6
    1.409    0.234    0.061    0.287    0.937   test_a.res in P2(1)  C4 C3
    1.409    0.277    0.115    0.362    0.689   test_a.res in P2(1)  C3 C4
    1.431    0.192    0.107    0.382    0.916   test_a.res in P2(1)  C8 C7
    1.431    0.266    0.144    0.382    0.997   test_a.res in P2(1)  C7 C8
    1.441    0.192    0.107    0.382    0.926   test_a.res in P2(1)  C8 C9
    1.496    0.237    0.123    0.382    0.785   test_a.res in P2(1)  C2 C9
    1.501    0.237    0.123    0.382    0.789   test_a.res in P2(1)  C1 C7

    0.930    0.178    0.175    0.351    0.493   test_a.res in P2(1)  H5 C5
    0.930    0.178    0.175    0.351    0.493   test_a.res in P2(1)  H4 C4
    0.930    0.178    0.175    0.351    0.493   test_a.res in P2(1)  H3 C3
    0.930    0.178    0.175    0.351    0.493   test_a.res in P2(1)  H6 C6
    0.960    0.203    0.230    0.361    0.476   test_a.res in P2(1)  H11A C11
    0.960    0.203    0.230    0.361    0.476   test_a.res in P2(1)  H11B C11
    0.960    0.203    0.230    0.361    0.476   test_a.res in P2(1)  H10A C10
    0.960    0.203    0.230    0.361    0.476   test_a.res in P2(1)  H10C C10
    0.960    0.203    0.230    0.361    0.476   test_a.res in P2(1)  H11C C11
    0.960    0.203    0.230    0.361    0.476   test_a.res in P2(1)  H10B C10

    1.227    0.262    0.098    0.345    0.478   test_a.res in P2(1)  O2 C9
    1.237    0.262    0.098    0.345    0.483   test_a.res in P2(1)  O1 C7

    0.930    0.255    0.219    0.287    0.330   test_a.res in P2(1)  C5 H5
    0.930    0.255    0.219    0.287    0.330   test_a.res in P2(1)  C4 H4
    0.930    0.233    0.164    0.362    0.472   test_a.res in P2(1)  C3 H3
    0.930    0.233    0.164    0.362    0.472   test_a.res in P2(1)  C6 H6
    0.960    0.222    0.230    0.361    0.310   test_a.res in P2(1)  C11 H11A
    0.960    0.222    0.230    0.361    0.310   test_a.res in P2(1)  C11 H11B
    0.960    0.222    0.230    0.361    0.310   test_a.res in P2(1)  C10 H10A
    0.960    0.222    0.230    0.361    0.310   test_a.res in P2(1)  C10 H10C
    0.960    0.222    0.230    0.361    0.310   test_a.res in P2(1)  C11 H11C
    0.960    0.222    0.230    0.361    0.310   test_a.res in P2(1)  C10 H10B

    1.227    0.424    0.216    0.382    0.561   test_a.res in P2(1)  C9 O2
    1.237    0.424    0.216    0.382    0.567   test_a.res in P2(1)  C7 O1

    1.708    0.233    0.112    0.382    0.874   test_a.res in P2(1)  C8 S1

    1.441    0.266    0.144    0.382    1.009   test_a.res in P2(1)  C9 C8
    1.496    0.184    0.148    0.382    1.117   test_a.res in P2(1)  C9 C2
    1.501    0.184    0.148    0.382    1.122   test_a.res in P2(1)  C7 C1

    1.708    0.181    0.214    0.361    1.369   test_a.res in P2(1)  S1 C8
    1.786    0.058    0.236    0.361    1.236   test_a.res in P2(1)  S1 C11
    1.789    0.058    0.236    0.361    1.238   test_a.res in P2(1)  S1 C10

    1.786    0.195    0.164    0.361    1.145   test_a.res in P2(1)  C11 S1
    1.789    0.195    0.164    0.361    1.147   test_a.res in P2(1)  C10 S1


REM  test_a.res in P2(1)2(1)2(1)
REM wR2 = 0.051848, GooF = S = 1.08606, Restrained GooF = 1.08606 for all data
REM R1 = 0.019635 for 2228 Fo > 4sig(Fo) and 0.020158 for all 2278 data
REM 132 parameters refined using 0 restraints

END

WGHT      0.0285      0.0446

REM Highest difference peak  0.106,  deepest hole -0.141,  1-sigma level  0.025
Q1    1   0.3152  0.5696  0.3514  11.00000  0.05    0.11
Q2    1   0.3969  0.4954  0.4036  11.00000  0.05    0.11
Q3    1   0.0723  0.6375  0.2624  11.00000  0.05    0.10
Q4    1   0.6308  0.6431  0.3806  11.00000  0.05    0.08
Q5    1   0.6773  0.6755  0.4670  11.00000  0.05    0.08
Q6    1   0.5178  0.5975  0.4384  11.00000  0.05    0.08
Q7    1   0.3347  0.7592  0.4028  11.00000  0.05    0.08
Q8    1   0.2748  0.5733  0.1595  11.00000  0.05    0.07
Q9    1   0.4605  0.5325  0.3147  11.00000  0.05    0.07
Q10   1   0.8094  0.5769  0.4232  11.00000  0.05    0.07
Q11   1   0.5324  0.8169  0.3426  11.00000  0.05    0.07
Q12   1   0.4163  0.7067  0.3528  11.00000  0.05    0.07
Q13   1   0.3276  0.6768  0.3666  11.00000  0.05    0.07
Q14   1   0.2848  0.6406  0.2948  11.00000  0.05    0.07
Q15   1   0.5810  0.6862  0.3970  11.00000  0.05    0.07
Q16   1   0.2926  0.8867  0.3214  11.00000  0.05    0.07
Q17   1   0.1579  0.7928  0.2642  11.00000  0.05    0.07
Q18   1   0.4947  0.5950  0.1870  11.00000  0.05    0.07
Q19   1   0.2934  0.6544  0.2228  11.00000  0.05    0.07
Q20   1   0.5324  0.2970  0.4940  11.00000  0.05    0.0