TITL
    2240189.res
    created by SHELXL-2018/3 at 11:49:50 on 01-Oct-2022
CELL  0.71073 16.19300 16.19300 11.24210 90.00000 90.00000 120.00000
ZERR 6  0.00150  0.00150  0.00110  0.00000  0.00000  0.00000
LATT 3
SYMM -Y, X-Y, Z
SYMM Y, X, -Z+ 0.50000
SYMM -X+Y, -X, Z
SYMM -X, -X+Y, -Z+ 0.50000
SYMM X-Y, -Y, -Z+ 0.50000
SFAC Fe Cl O  H
UNIT 6  18  126  108
L.S. 0
BOND
LIST 4
FMAP 2
PLAN 5
WGHT    0.026900   23.913403
FVAR       0.31437   0.77327
FE1   1    0.000000    0.000000    0.500000    10.16667    0.01569    0.01569 =
         0.02514    0.00000    0.00000    0.00785
O1    3    0.074199    0.116656    0.399075    11.00000    0.01652    0.01952 =
         0.03410    0.00449   -0.00042    0.00501
HKLF 4

END 
 
WGHT      0.0275     23.0848 
