TITL P21n in P2(1)/n
CELL  0.71073   9.9199   9.5808  18.1079   90.000  105.506   90.000
ZERR    4.00   0.0012   0.0011   0.0022   0.000   0.003   0.000
LATT 1
SYMM 1/2-X, 1/2+Y, 1/2-Z
SFAC C  H  N
UNIT 88 80 8
L.S. 15
ACTA
BOND $H
FMAP 2
HTAB
SADI_1 N1 N2 C1 C2
PLAN 20
CONF
TEMP -173
WGHT    0.079100    0.773600
FVAR       0.15916
RESI 1 CCF3
N1    3    0.560600    0.373727    0.162013    11.00000    0.02436    0.01465 =
         0.02743    0.00111    0.00668    0.00230
N2    3    0.077011    0.748063    0.114140    11.00000    0.02470    0.01305 =
         0.02799   -0.00101    0.00671    0.00028
RESI 0
C1    1    0.498013    0.502539    0.142184    11.00000    0.02805    0.01321 =
         0.02703    0.00093    0.00508    0.00195
AFIX  43
H1    2    0.537231    0.578391    0.121223    11.00000   -1.20000
AFIX   0
C2    1    0.370884    0.502598    0.157687    11.00000    0.02358    0.01666 =
         0.02460   -0.00151    0.00335    0.00296
C3    1    0.354551    0.367870    0.188353    11.00000    0.02593    0.02102 =
         0.02626   -0.00029    0.00705    0.00066

HKLF 4
 
REM  P21n in P2(1)/n
REM R1 =  0.0517 for   2480 Fo > 4sig(Fo)  and  0.0643 for all   3033 data
REM    219 parameters refined using      0 restraints
 
END  
     
WGHT      0.0791      0.7736 
REM Highest difference peak  0.267,  deepest hole -0.301,  1-sigma level  0.067
Q1    1   0.8836  0.2969  0.2052  11.00000  0.05    0.27
Q2    1   0.6840  0.3075  0.2063  11.00000  0.05    0.24
Q3    1   0.6855  0.3367  0.1062  11.00000  0.05    0.24
Q4    1   0.6392  0.3587  0.1589  11.00000  0.05    0.23
Q5    1   0.0715  0.7453  0.0577  11.00000  0.05    0.23
Q6    1   0.7861  0.3337  0.0885  11.00000  0.05    0.22
Q7    1   0.2136  0.6206  0.1701  11.00000  0.05    0.21
Q8    1   0.5675  0.3540  0.2117  11.00000  0.05    0.20
Q9    1   0.4669  0.5123  0.1786  11.00000  0.05    0.20
Q10   1   0.4377  0.3378  0.2255  11.00000  0.05    0.20
Q11   1   1.0374  0.2737  0.1950  11.00000  0.05    0.20
Q12   1   0.5247  0.3569  0.0520  11.00000  0.05    0.19
Q13   1   0.9609  0.3077  0.0544  11.00000  0.05    0.19
Q14   1   0.6398  0.1529  0.2236  11.00000  0.05    0.18
Q15   1   1.0498  0.2802  0.1127  11.00000  0.05    0.18
Q16   1   0.9629  0.3123 -0.0062  11.00000  0.05    0.18
Q17   1  -0.2236  0.7329  0.0027  11.00000  0.05    0.18
Q18   1   0.3997  0.4988  0.1160  11.00000  0.05    0.18
Q19   1   1.0436  0.3074  0.0367  11.00000  0.05    0.17
Q20   1   0.2010  0.6090  0.1037  11.00000  0.05    0.17
